Copyright (C) 2013-2015, Filipe Brandao
Build (method = -2)
  #dp: 1083
  Step-3' Graph: 54 vertices and 508 arcs (0.00s)
  Step-4' Graph: 48 vertices and 496 arcs (0.00s)
  #V4/#V3 = 0.89
  #A4/#A3 = 0.98
Ready! (0.00s)
Optimize a model with 90 rows, 497 columns and 1400 nonzeros
Found heuristic solution: objective 89
Presolve removed 20 rows and 26 columns
Presolve time: 0.00s
Presolved: 70 rows, 471 columns, 1304 nonzeros
Variable types: 0 continuous, 471 integer (70 binary)
Optimize a model with 70 rows, 471 columns and 1304 nonzeros
Presolved: 70 rows, 471 columns, 1304 nonzeros

Root barrier log...

Ordering time: 0.00s

Barrier statistics:
 AA' NZ     : 6.810e+02
 Factor NZ  : 1.501e+03
 Factor Ops : 4.063e+04 (less than 1 second per iteration)
 Threads    : 1

                  Objective                Residual
Iter       Primal          Dual         Primal    Dual     Compl     Time
   0   1.35130744e+03 -3.44605873e+03  5.15e+03 1.06e-01  4.08e+01     0s
   1   3.64590820e+02 -1.37317506e+03  6.53e+02 6.66e-16  5.94e+00     0s
   2   1.19258576e+02 -4.26203840e+02  5.10e+01 1.89e-15  8.04e-01     0s
   3   7.94568481e+01 -7.61831137e+01  2.36e+00 8.33e-16  1.68e-01     0s
   4   6.03242380e+01  5.48961939e+00  3.19e-01 4.79e-16  5.75e-02     0s
   5   5.14771023e+01  2.40264101e+01  1.21e-01 3.33e-16  2.87e-02     0s
   6   4.79269979e+01  3.81558099e+01  4.62e-02 3.43e-16  1.02e-02     0s
   7   4.66548895e+01  4.29380162e+01  1.66e-02 3.33e-16  3.87e-03     0s
   8   4.58008849e+01  4.53763514e+01  6.20e-04 3.38e-16  4.42e-04     0s
   9   4.57514903e+01  4.57423510e+01  1.22e-06 3.33e-16  9.50e-06     0s
  10   4.57500015e+01  4.57499924e+01  2.39e-13 3.33e-16  9.50e-09     0s
  11   4.57500000e+01  4.57500000e+01  1.21e-13 3.33e-16  9.50e-12     0s

Barrier solved model in 11 iterations and 0.00 seconds
Optimal objective 4.57500000e+01


Root relaxation: objective 4.575000e+01, 151 iterations, 0.00 seconds

    Nodes    |    Current Node    |     Objective Bounds      |     Work
 Expl Unexpl |  Obj  Depth IntInf | Incumbent    BestBd   Gap | It/Node Time

     0     0   45.75000    0   15   89.00000   45.75000  48.6%     -    0s
H    0     0                      47.0000000   45.75000  2.66%     -    0s
H    0     0                      46.0000000   45.75000  0.54%     -    0s

Explored 0 nodes (217 simplex iterations) in 0.01 seconds
Thread count was 1 (of 4 available processors)

Optimal solution found (tolerance 0.00e+00)
Best objective 4.600000000000e+01, best bound 4.600000000000e+01, gap 0.0%
Preprocessing time: 0.00 seconds
Gurobi run time: 0.01 seconds
Total run time: 0.01 seconds
Objective: 46
Solution:
1 x [i=1]
3 x [i=2, i=34]
1 x [i=3, i=33]
1 x [i=3, i=37]
1 x [i=4, i=31]
2 x [i=5, i=30]
2 x [i=6, i=30]
1 x [i=7, i=29]
1 x [i=8, i=31]
5 x [i=8, i=32]
3 x [i=9, i=26]
2 x [i=9, i=28]
1 x [i=9, i=31]
2 x [i=10, i=25]
1 x [i=10, i=27]
1 x [i=10, i=29]
1 x [i=10, i=42, i=42]
1 x [i=11, i=24]
2 x [i=12, i=24]
2 x [i=13, i=40, i=41]
1 x [i=14, i=23]
1 x [i=15, i=22]
1 x [i=15, i=40, i=40]
1 x [i=16, i=20]
1 x [i=17, i=21]
1 x [i=18, i=36, i=40]
2 x [i=19, i=20]
1 x [i=21, i=36, i=38]
2 x [i=23, i=35, i=39]
1 x [i=24, i=38, i=38]
